unsat
(error "line 1696 column 17: model is not available")
(error "line 1697 column 17: model is not available")
(error "line 1698 column 18: model is not available")
(error "line 1699 column 18: model is not available")
(error "line 1700 column 18: model is not available")
(error "line 1701 column 18: model is not available")
(error "line 1702 column 18: model is not available")
(error "line 1703 column 18: model is not available")
(error "line 1704 column 18: model is not available")
(error "line 1705 column 18: model is not available")
(error "line 1706 column 18: model is not available")
(error "line 1707 column 18: model is not available")
(error "line 1708 column 17: model is not available")
(error "line 1709 column 18: model is not available")
(error "line 1710 column 18: model is not available")
(error "line 1711 column 18: model is not available")
(error "line 1712 column 18: model is not available")
(error "line 1713 column 18: model is not available")
(error "line 1714 column 18: model is not available")
(error "line 1715 column 18: model is not available")
(error "line 1716 column 18: model is not available")
(error "line 1717 column 18: model is not available")
(error "line 1718 column 18: model is not available")
(error "line 1719 column 17: model is not available")
(error "line 1720 column 18: model is not available")
(error "line 1721 column 18: model is not available")
(error "line 1722 column 18: model is not available")
(error "line 1723 column 18: model is not available")
(error "line 1724 column 18: model is not available")
(error "line 1725 column 18: model is not available")
(error "line 1726 column 18: model is not available")
(error "line 1727 column 17: model is not available")
(error "line 1728 column 17: model is not available")
(error "line 1729 column 17: model is not available")
(error "line 1730 column 17: model is not available")
(error "line 1731 column 17: model is not available")
(error "line 1732 column 17: model is not available")
(error "line 1733 column 34: model is not available")
(error "line 1734 column 34: model is not available")
(error "line 1735 column 34: model is not available")
(error "line 1736 column 34: model is not available")
(error "line 1737 column 71: model is not available")
(error "line 1738 column 71: model is not available")
(error "line 1739 column 28: model is not available")
(error "line 1740 column 34: model is not available")
(error "line 1741 column 34: model is not available")
(error "line 1742 column 34: model is not available")
(error "line 1743 column 34: model is not available")
(error "line 1744 column 71: model is not available")
(error "line 1745 column 71: model is not available")
(error "line 1746 column 28: model is not available")
(error "line 1747 column 34: model is not available")
(error "line 1748 column 34: model is not available")
(error "line 1749 column 34: model is not available")
(error "line 1750 column 34: model is not available")
(error "line 1751 column 71: model is not available")
(error "line 1752 column 71: model is not available")
(error "line 1753 column 28: model is not available")
(error "line 1754 column 38: model is not available")
(error "line 1755 column 45: model is not available")
(error "line 1756 column 38: model is not available")
(error "line 1757 column 45: model is not available")
(error "line 1758 column 46: model is not available")
(error "line 1759 column 53: model is not available")
(error "line 1760 column 40: model is not available")
(error "line 1761 column 47: model is not available")
(error "line 1762 column 38: model is not available")
(error "line 1763 column 45: model is not available")
(error "line 1764 column 38: model is not available")
(error "line 1765 column 45: model is not available")
(error "line 1766 column 41: model is not available")
(error "line 1767 column 48: model is not available")
(error "line 1768 column 41: model is not available")
(error "line 1769 column 48: model is not available")
(error "line 1770 column 41: model is not available")
(error "line 1771 column 48: model is not available")
(error "line 1772 column 41: model is not available")
(error "line 1773 column 41: model is not available")
(error "line 1774 column 48: model is not available")
(error "line 1775 column 41: model is not available")
(error "line 1776 column 48: model is not available")
(error "line 1777 column 41: model is not available")
(error "line 1778 column 41: model is not available")
(error "line 1779 column 48: model is not available")
(error "line 1780 column 37: model is not available")
(error "line 1781 column 44: model is not available")
(error "line 1782 column 42: model is not available")
(error "line 1783 column 42: model is not available")
(error "line 1784 column 42: model is not available")
(error "line 1785 column 42: model is not available")
(error "line 1786 column 38: model is not available")
(error "line 1787 column 38: model is not available")
(error "line 1788 column 38: model is not available")
(error "line 1789 column 38: model is not available")
(error "line 1790 column 38: model is not available")
(error "line 1791 column 38: model is not available")
(error "line 1792 column 38: model is not available")
(error "line 1793 column 41: model is not available")
(error "line 1794 column 48: model is not available")
(error "line 1795 column 41: model is not available")
(error "line 1796 column 48: model is not available")
(error "line 1797 column 41: model is not available")
(error "line 1798 column 48: model is not available")
(error "line 1799 column 41: model is not available")
(error "line 1800 column 48: model is not available")
(error "line 1801 column 41: model is not available")
(error "line 1802 column 48: model is not available")
(error "line 1803 column 41: model is not available")
(error "line 1804 column 48: model is not available")
(error "line 1805 column 41: model is not available")
(error "line 1806 column 48: model is not available")
(error "line 1807 column 50: model is not available")
(error "line 1808 column 57: model is not available")
(error "line 1809 column 57: model is not available")
(error "line 1810 column 57: model is not available")
(error "line 1811 column 33: model is not available")
(error "line 1812 column 40: model is not available")
(error "line 1813 column 34: model is not available")
(error "line 1814 column 41: model is not available")
(error "line 1815 column 34: model is not available")
(error "line 1816 column 34: model is not available")
(error "line 1817 column 41: model is not available")
(error "line 1818 column 33: model is not available")
(error "line 1819 column 40: model is not available")
(error "line 1820 column 33: model is not available")
(error "line 1821 column 33: model is not available")
(error "line 1822 column 40: model is not available")
(error "line 1823 column 33: model is not available")
(error "line 1824 column 33: model is not available")
(error "line 1825 column 40: model is not available")
(error "line 1826 column 33: model is not available")
(error "line 1827 column 40: model is not available")
(error "line 1828 column 33: model is not available")
(error "line 1829 column 33: model is not available")
(error "line 1830 column 40: model is not available")
(error "line 1831 column 38: model is not available")
(error "line 1832 column 36: model is not available")
(error "line 1833 column 36: model is not available")
(error "line 1834 column 36: model is not available")
(error "line 1835 column 36: model is not available")
(error "line 1836 column 32: model is not available")
(error "line 1837 column 39: model is not available")
(error "line 1838 column 32: model is not available")
(error "line 1839 column 39: model is not available")
(error "line 1840 column 32: model is not available")
(error "line 1841 column 39: model is not available")
(error "line 1842 column 32: model is not available")
(error "line 1843 column 39: model is not available")
(error "line 1844 column 32: model is not available")
(error "line 1845 column 32: model is not available")
(error "line 1846 column 39: model is not available")
(error "line 1847 column 32: model is not available")
(error "line 1848 column 39: model is not available")
(error "line 1849 column 32: model is not available")
(error "line 1850 column 39: model is not available")
(error "line 1851 column 32: model is not available")
(error "line 1852 column 39: model is not available")
(error "line 1853 column 33: model is not available")
(error "line 1854 column 35: model is not available")
(error "line 1855 column 42: model is not available")
(error "line 1856 column 35: model is not available")
(error "line 1857 column 42: model is not available")
(error "line 1858 column 33: model is not available")
(error "line 1859 column 35: model is not available")
(error "line 1860 column 42: model is not available")
(error "line 1861 column 35: model is not available")
(error "line 1862 column 42: model is not available")
(error "line 1863 column 40: model is not available")
(error "line 1864 column 33: model is not available")
(error "line 1865 column 35: model is not available")
(error "line 1866 column 42: model is not available")
(error "line 1867 column 35: model is not available")
(error "line 1868 column 42: model is not available")
(error "line 1869 column 40: model is not available")
(error "line 1870 column 53: model is not available")
(error "line 1871 column 51: model is not available")
(error "line 1872 column 53: model is not available")
(error "line 1873 column 53: model is not available")
(error "line 1874 column 52: model is not available")
(error "line 1875 column 53: model is not available")
(error "line 1876 column 52: model is not available")
(error "line 1877 column 52: model is not available")
(error "line 1878 column 52: model is not available")
(error "line 1879 column 53: model is not available")
(error "line 1880 column 53: model is not available")
(error "line 1881 column 53: model is not available")
(error "line 1882 column 53: model is not available")
(error "line 1883 column 52: model is not available")
(error "line 1884 column 52: model is not available")
(error "line 1885 column 53: model is not available")
(error "line 1886 column 52: model is not available")
(error "line 1887 column 52: model is not available")
(error "line 1888 column 53: model is not available")
(error "line 1889 column 52: model is not available")
(error "line 1890 column 52: model is not available")
(error "line 1891 column 53: model is not available")
(error "line 1892 column 53: model is not available")
(error "line 1893 column 53: model is not available")
(error "line 1894 column 53: model is not available")
(error "line 1895 column 52: model is not available")
(error "line 1896 column 51: model is not available")
(error "line 1897 column 51: model is not available")
(error "line 1898 column 51: model is not available")
(error "line 1899 column 50: model is not available")
(error "line 1900 column 50: model is not available")
(error "line 1901 column 52: model is not available")
(error "line 1902 column 51: model is not available")
(error "line 1903 column 51: model is not available")
(error "line 1904 column 51: model is not available")
(error "line 1905 column 50: model is not available")
(error "line 1906 column 50: model is not available")
(error "line 1907 column 52: model is not available")
(error "line 1908 column 51: model is not available")
(error "line 1909 column 51: model is not available")
(error "line 1910 column 51: model is not available")
(error "line 1911 column 50: model is not available")
(error "line 1912 column 50: model is not available")
(error "line 1913 column 56: model is not available")
(error "line 1914 column 56: model is not available")
(error "line 1915 column 56: model is not available")
(error "line 1916 column 56: model is not available")
(error "line 1917 column 56: model is not available")
(error "line 1918 column 56: model is not available")
(error "line 1919 column 56: model is not available")
(error "line 1920 column 56: model is not available")
(error "line 1921 column 56: model is not available")
(error "line 1922 column 56: model is not available")
(error "line 1923 column 56: model is not available")
(error "line 1924 column 56: model is not available")
(error "line 1925 column 55: model is not available")
(error "line 1926 column 55: model is not available")
(error "line 1927 column 55: model is not available")
(error "line 1928 column 55: model is not available")
(error "line 1929 column 55: model is not available")
(error "line 1930 column 55: model is not available")
(error "line 1931 column 55: model is not available")
(error "line 1932 column 55: model is not available")
(error "line 1933 column 55: model is not available")
(error "line 1934 column 36: model is not available")
(error "line 1935 column 36: model is not available")
(error "line 1936 column 36: model is not available")
(error "line 1937 column 46: model is not available")
(error "line 1938 column 46: model is not available")
(error "line 1939 column 46: model is not available")
(error "line 1940 column 46: model is not available")
(error "line 1941 column 46: model is not available")
(error "line 1942 column 46: model is not available")
(error "line 1943 column 54: model is not available")
(error "line 1944 column 54: model is not available")
(error "line 1945 column 54: model is not available")
(error "line 1946 column 54: model is not available")
(error "line 1947 column 54: model is not available")
(error "line 1948 column 54: model is not available")
(error "line 1949 column 54: model is not available")
(error "line 1950 column 54: model is not available")
(error "line 1951 column 54: model is not available")
(error "line 1952 column 40: model is not available")
(error "line 1953 column 40: model is not available")
(error "line 1954 column 40: model is not available")
(error "line 1955 column 40: model is not available")
(error "line 1956 column 40: model is not available")
(error "line 1957 column 40: model is not available")
(error "line 1958 column 41: model is not available")
(error "line 1959 column 41: model is not available")
(error "line 1960 column 41: model is not available")
(error "line 1961 column 41: model is not available")
(error "line 1962 column 41: model is not available")
(error "line 1963 column 41: model is not available")
(error "line 1964 column 50: model is not available")
(error "line 1965 column 50: model is not available")
(error "line 1966 column 50: model is not available")
(error "line 1967 column 50: model is not available")
(error "line 1968 column 50: model is not available")
(error "line 1969 column 50: model is not available")
(error "line 1970 column 43: model is not available")
(error "line 1971 column 43: model is not available")
(error "line 1972 column 43: model is not available")
(error "line 1973 column 43: model is not available")
(error "line 1974 column 43: model is not available")
(error "line 1975 column 43: model is not available")
(error "line 1976 column 26: model is not available")
(error "line 1977 column 30: model is not available")
(error "line 1978 column 30: model is not available")
(error "line 1979 column 30: model is not available")
(error "line 1980 column 18: model is not available")
(error "line 1981 column 25: model is not available")
(error "line 1982 column 18: model is not available")
(error "line 1983 column 25: model is not available")
(error "line 1984 column 18: model is not available")
(error "line 1985 column 18: model is not available")
(error "line 1986 column 25: model is not available")
(error "line 1987 column 18: model is not available")
(error "line 1988 column 25: model is not available")
(error "line 1989 column 18: model is not available")
(error "line 1990 column 25: model is not available")
(error "line 1991 column 18: model is not available")
(error "line 1992 column 25: model is not available")
(error "line 1993 column 18: model is not available")
(error "line 1994 column 18: model is not available")
(error "line 1995 column 25: model is not available")
(error "line 1996 column 18: model is not available")
(error "line 1997 column 25: model is not available")
(error "line 1998 column 18: model is not available")
(error "line 1999 column 25: model is not available")
(error "line 2000 column 18: model is not available")
(error "line 2001 column 25: model is not available")
(error "line 2002 column 18: model is not available")
(error "line 2003 column 18: model is not available")
(error "line 2004 column 25: model is not available")
(error "line 2005 column 18: model is not available")
(error "line 2006 column 25: model is not available")
(error "line 2008 column 10: model is not available")
(:added-eqs                      254
 :arith-bound-propagations-cheap 71
 :arith-bound-propagations-lp    77
 :arith-conflicts                1
 :arith-lower                    94
 :arith-make-feasible            36
 :arith-max-columns              140
 :arith-max-rows                 97
 :arith-propagations             71
 :arith-upper                    87
 :array-ax1                      3
 :binary-propagations            1022
 :bv-bit2core                    1254
 :bv-diseqs                      4
 :bv->core-eq                    24
 :conflicts                      29
 :decisions                      36
 :del-clause                     204
 :eliminated-applications        23
 :eliminated-vars                16
 :max-memory                     4.37
 :memory                         3.15
 :minimized-lits                 73
 :mk-bool-var                    927
 :mk-clause                      836
 :num-allocs                     1167235
 :num-checks                     1
 :propagations                   1951
 :rlimit-count                   64190
 :time                           0.01
 :total-time                     0.02)

real	0m0.022s
user	0m0.021s
sys	0m0.001s
State: RE Run_time: 0.02391529083251953